NAME : mEgtspf.pid13364.gtsp.161061449.tour
COMMENT : Length = 161061449
COMMENT : Found by LKH [Keld Helsgaun] Wed Apr  2 20:49:50 2025
TYPE : TOUR
DIMENSION : 90
TOUR_SECTION
1
31
32
33
34
5
2
7
80
81
82
79
61
62
59
60
86
83
84
85
26
23
24
25
64
65
66
63
78
75
76
77
6
29
30
27
28
8
20
21
22
19
90
87
88
89
43
44
45
46
9
4
57
58
55
56
35
36
37
38
47
48
49
50
71
72
73
74
51
52
53
54
10
17
18
15
16
13
14
11
12
68
69
70
67
3
39
40
41
42
-1
EOF
